problems/VanDerWaerdenNumbers/VanDerWaerden-models/noch/O2/lingeling/model_2-k3l4n36-solution000001.eprime-solution
language ESSENCE' 1.0

letting p_PartitionAsSet_ExplicitR6_ExplicitVarSizeWithDummy be
        [[1, 14, 16, 18, 32, 33, 36, 37, 37, 37, 37, 37, 37, 37, 37, 37, 37, 37, 37, 37, 37, 37, 37, 37, 37, 37, 37, 37,
          37, 37, 37, 37, 37, 37, 37, 37; int(1..36)],
         [2, 6, 7, 11, 15, 17, 20, 21, 22, 26, 27, 31, 34, 37, 37, 37, 37, 37, 37, 37, 37, 37, 37, 37, 37, 37, 37, 37,
          37, 37, 37, 37, 37, 37, 37, 37; int(1..36)],
         [3, 4, 5, 8, 9, 10, 12, 13, 19, 23, 24, 25, 28, 29, 30, 35, 37, 37, 37, 37, 37, 37, 37, 37, 37, 37, 37, 37, 37,
          37, 37, 37, 37, 37, 37, 37; int(1..36)]; int(1..3)]
